width = 39;
n = 29;
dimensions = [|15, 39
|5, 18
|5, 13
|5, 11
|5, 10
|5, 8
|5, 6
|5, 5
|5, 4
|5, 3
|4, 16
|4, 15
|4, 12
|4, 9
|4, 8
|4, 6
|4, 5
|4, 4
|4, 3
|3, 15
|3, 11
|3, 10
|3, 9
|3, 8
|3, 7
|3, 6
|3, 5
|3, 4
|3, 3|];